WARNING: for repeatability, setting FPU to use double precision
============================[ Problem Statistics ]=============================
|                                                                             |
|  Number of variables:           100                                         |
|  Number of clauses:             449                                         |
|  Parse time:                   0.00 s                                       |
|  Eliminated clauses:           0.00 Mb                                      |
|  Simplification time:          0.00 s                                       |
|                                                                             |
============================[ Search Statistics ]==============================
| Conflicts |          ORIGINAL         |          LEARNT          | Progress |
|           |    Vars  Clauses Literals |    Limit  Clauses Lit/Cl |          |
===============================================================================
|       100 |      99      447     1345 |      163      100      7 |  0.010 % |
|       250 |      98      436     1312 |      180       78      7 |  1.010 % |
===============================================================================
restarts              : 3
conflicts             : 363            (100974 /sec)
decisions             : 455            (0.00 % random) (126565 /sec)
propagations          : 8427           (2344089 /sec)
conflict literals     : 2340           (18.89 % deleted)
Memory used           : 13.00 MB
CPU time              : 0.003595 s

SATISFIABLE
